16 76 24 34 1 
33 12 31 23 30 62 36 69 90 71 79 41 40 46 66 
94 45 64 25 2 35 5 77 
39 99 
37 27 84 75 
73 78 20 32 43 56 68 74 17 100 83 
44 42 92 28 9 22 21 97 82 
63 38 8 48 26 58 
18 13 91 
57 60 80 
61 96 
70 52 
59 
29 86 4 50 85 
11 51 15 81 72 87 89 55 
14 65 47 88 67 53 6 49 19 54 3 10 98 95 93 7 

